cases/pglib-opf/pglib_opf_case57_ieee.m
ipopt
ACP
[info | PowerModels]: removing 3 cost terms from generator 4: Float64[]
[info | PowerModels]: removing 1 cost terms from generator 1: [1696.0624, 0.0]
[info | PowerModels]: removing 1 cost terms from generator 5: [3044.1037, 0.0]
[info | PowerModels]: removing 3 cost terms from generator 2: Float64[]
[info | PowerModels]: removing 3 cost terms from generator 6: Float64[]
[info | PowerModels]: removing 1 cost terms from generator 7: [3718.8979000000004, 0.0]
[info | PowerModels]: removing 1 cost terms from generator 3: [3407.5557000000003, 0.0]

******************************************************************************
This program contains Ipopt, a library for large-scale nonlinear optimization.
 Ipopt is released as open source code under the Eclipse Public License (EPL).
         For more information visit http://projects.coin-or.org/Ipopt
******************************************************************************

This is Ipopt version 3.13.2, running with linear solver mumps.
NOTE: Other linear solvers might be more efficient (see Ipopt documentation).

Number of nonzeros in equality constraint Jacobian...:     1935
Number of nonzeros in inequality constraint Jacobian.:      632
Number of nonzeros in Lagrangian Hessian.............:     3523

Total number of variables............................:      445
                     variables with only lower bounds:        0
                variables with lower and upper bounds:      388
                     variables with only upper bounds:        0
Total number of equality constraints.................:      435
Total number of inequality constraints...............:      316
        inequality constraints with only lower bounds:       78
   inequality constraints with lower and upper bounds:        0
        inequality constraints with only upper bounds:      238

iter    objective    inf_pr   inf_du lg(mu)  ||d||  lg(rg) alpha_du alpha_pr  ls
   0  1.0503586e+02 3.76e+00 1.91e+01  -1.0 0.00e+00    -  0.00e+00 0.00e+00   0
   1  1.0716534e+04 2.65e+00 1.19e+02  -1.0 3.70e+00    -  2.74e-03 2.95e-01h  1
   2  1.3984049e+04 2.15e+00 9.71e+01  -1.0 7.02e+00    -  5.91e-02 1.90e-01h  1
   3  1.4673524e+04 2.08e+00 7.81e+01  -1.0 3.90e+00    -  3.67e-01 2.99e-02h  1
   4  2.0340431e+04 1.57e+00 5.90e+01  -1.0 4.22e+00    -  7.79e-01 2.46e-01h  1
   5  3.5213894e+04 2.14e-01 4.80e+01  -1.0 4.88e+00    -  7.60e-01 8.64e-01h  1
   6  3.6361558e+04 1.01e-01 2.37e+01  -1.0 1.06e+01    -  7.33e-01 5.27e-01h  1
   7  3.7555250e+04 1.23e-02 1.54e+00  -1.0 6.75e+00    -  1.00e+00 1.00e+00h  1
   8  3.7614439e+04 3.64e-04 1.91e-02  -1.0 1.25e+00    -  1.00e+00 1.00e+00h  1
   9  3.7591309e+04 4.39e-04 3.47e+00  -2.5 1.26e+00    -  8.64e-01 1.00e+00f  1
iter    objective    inf_pr   inf_du lg(mu)  ||d||  lg(rg) alpha_du alpha_pr  ls
  10  3.7590572e+04 8.45e-05 2.31e+00  -2.5 1.37e-01    -  9.45e-01 8.36e-01h  1
  11  3.7590149e+04 1.43e-05 1.36e-03  -2.5 2.81e-02    -  1.00e+00 1.00e+00f  1
  12  3.7589396e+04 2.20e-06 1.90e-02  -3.8 4.24e-02    -  9.89e-01 1.00e+00h  1
  13  3.7589383e+04 8.07e-09 2.05e-06  -3.8 5.69e-04    -  1.00e+00 1.00e+00h  1
  14  3.7589339e+04 7.59e-09 1.23e-06  -5.7 2.32e-03    -  1.00e+00 1.00e+00h  1
  15  3.7589338e+04 1.87e-12 2.71e-10  -8.6 2.92e-05    -  1.00e+00 1.00e+00h  1

Number of Iterations....: 15

                                   (scaled)                 (unscaled)
Objective...............:   1.0107655336327787e+03    3.7589338204193205e+04
Dual infeasibility......:   2.7139226846731312e-10    1.0092801372793271e-08
Constraint violation....:   1.8658408151850381e-12    1.8658408151850381e-12
Complementarity.........:   2.6288074402152112e-09    9.7762664689207256e-08
Overall NLP error.......:   2.6288074402152112e-09    9.7762664689207256e-08


Number of objective function evaluations             = 16
Number of objective gradient evaluations             = 16
Number of equality constraint evaluations            = 16
Number of inequality constraint evaluations          = 16
Number of equality constraint Jacobian evaluations   = 16
Number of inequality constraint Jacobian evaluations = 16
Number of Lagrangian Hessian evaluations             = 15
Total CPU secs in IPOPT (w/o function evaluations)   =      1.320
Total CPU secs in NLP function evaluations           =      2.290

EXIT: Optimal Solution Found.
Time to Solution........:4.325567960739136
